NAME : local_14
TYPE : ATSP
DIMENSION : 5
EDGE_WEIGHT_TYPE : EXPLICIT
EDGE_WEIGHT_FORMAT : FULL_MATRIX
EDGE_WEIGHT_SECTION
0 417 189 359 0 
0 0 563 776 417 
0 563 0 272 189 
0 776 272 0 359 
0 10000000 10000000 10000000 0 
EOF